Version identifier: 12.10.0.0 | 2019-11-26 | 843d4de
CPXPARAM_WorkMem                                 28672
Tried aggregator 2 times.
Aggregator did 50 substitutions.
Reduced MIP has 163 rows, 180 columns, and 771 nonzeros.
Reduced MIP has 180 binaries, 0 generals, 0 SOSs, and 0 indicators.
Presolve time = 0,00 sec. (0,78 ticks)
Found incumbent of value 882,000000 after 0,00 sec. (1,17 ticks)
Probing time = 0,00 sec. (0,37 ticks)
Tried aggregator 1 time.
Detecting symmetries...
MIP Presolve eliminated 21 rows and 0 columns.
MIP Presolve added 42 rows and 0 columns.
Reduced MIP has 184 rows, 180 columns, and 792 nonzeros.
Reduced MIP has 180 binaries, 0 generals, 0 SOSs, and 0 indicators.
Presolve time = 0,00 sec. (0,99 ticks)
Probing time = 0,00 sec. (0,37 ticks)
Clique table members: 571.
MIP emphasis: balance optimality and feasibility.
MIP search method: dynamic search.
Parallel mode: deterministic, using up to 16 threads.
Root relaxation solution time = 0,00 sec. (0,43 ticks)

        Nodes                                         Cuts/
   Node  Left     Objective  IInf  Best Integer    Best Bound    ItCnt     Gap

*     0+    0                          882,0000        0,0000           100,00%
*     0+    0                          499,0000        0,0000           100,00%
      0     0      294,0000   112      499,0000      294,0000       45   41,08%
*     0+    0                          461,0000      294,0000            36,23%
      0     0      294,0000   112      461,0000      Cuts: 68       56   36,23%
*     0+    0                          458,0000      294,0000            35,81%
      0     0      294,0000   112      458,0000     Cuts: 146       78   35,81%
      0     0      294,0000   112      458,0000     Cuts: 146       90   35,81%
*     0+    0                          408,0000      294,0000            27,94%
      0     2      294,0000   120      408,0000      306,5000       90   24,88%
Elapsed time = 0,06 sec. (28,43 ticks, tree = 0,02 MB, solutions = 5)

Clique cuts applied:  47
Cover cuts applied:  111
Implied bound cuts applied:  7
Mixed integer rounding cuts applied:  50
Zero-half cuts applied:  14
Gomory fractional cuts applied:  1

Root node processing (before b&c):
  Real time             =    0,06 sec. (28,27 ticks)
Parallel b&c, 16 threads:
  Real time             =    0,04 sec. (18,79 ticks)
  Sync time (average)   =    0,03 sec.
  Wait time (average)   =    0,00 sec.
                          ------------
Total (root+branch&cut) =    0,10 sec. (47,05 ticks)
